proyfinal/src/viki/013/andrea/andrea-localstore/experimentInOfficeAgust.take6/worker_6/4576748e-ffd5-4f6d-8d53-e1e081e7a13a.als.cnf.out
Reading from standard input... Use '--help' for help.
============================[ Problem Statistics ]=============================
|                                                                             |
|  Number of variables:         87638                                         |
|  Number of clauses:          161767                                         |
|  Parse time:                   0.03 s                                       |
|                                                                             |
============================[ Search Statistics ]==============================
| Conflicts |          ORIGINAL         |          LEARNT          | Progress |
|           |    Vars  Clauses Literals |    Limit  Clauses Lit/Cl |          |
===============================================================================
|       100 |   62479   105775   263738 |    38784      100      9 | 28.708 % |
|       250 |   62082   105775   263738 |    42662      243     40 | 29.161 % |
|       475 |   62082   104187   259941 |    46928      451     40 | 29.161 % |
|       812 |   62082   104187   259941 |    51621      788     70 | 29.161 % |
|      1318 |   62082   104187   259941 |    56783     1294     74 | 29.161 % |
|      2077 |   62053   104031   259584 |    62462     2048     70 | 29.194 % |
|      3216 |   62053   104031   259584 |    68708     3187     82 | 29.194 % |
|      4924 |   54358    80427   201503 |    75579     4784     72 | 37.974 % |
|      7486 |   54332    80284   201191 |    83137     6438     67 | 38.004 % |
|     11330 |   54080    79212   198588 |    91451    10209     67 | 38.292 % |
|     17096 |   53803    77993   195708 |   100596    13390     60 | 38.608 % |
===============================================================================
restarts              : 72
conflicts             : 20561          (8808 /sec)
decisions             : 64327          (0.00 % random) (27557 /sec)
propagations          : 23597043       (10108748 /sec)
conflict literals     : 1178191        (46.91 % deleted)
Memory used           : 40.24 MB
CPU time              : 2.33432 s

UNSATISFIABLE
